(set-info :Origin "This instance was generated by: BanditFuzz-- an RL fuzzer for SMT solvers" )
(set-info :Author "Joe Scott, Fed Mora, Vijay Ganesh" )
(set-info :Contact "Joe Scott, joseph.scott@uwaterloo.ca")
(set-logic QF_BV)
(declare-const bool_0 Bool)
(declare-const bool_1 Bool)
(declare-const bool_2 Bool)
(declare-const bool_3 Bool)
(declare-const bool_4 Bool)
(declare-const bv_0 (_ BitVec 32))
(declare-const bv_1 (_ BitVec 32))
(declare-const bv_2 (_ BitVec 32))
(declare-const bv_3 (_ BitVec 32))
(declare-const bv_4 (_ BitVec 32))
(assert (bvsle (bvsmod (bvnand #x057c5deb  bv_0) (bvmul bv_2 #xa3c523ab )) (bvor (bvsdiv #x015d776a  bv_0) (bvlshr bv_3 bv_2))))
(assert (bvslt (bvnor (bvsub #x21a2d2a2  #x476f8163 ) (bvmul #x24759bb5  #xc4d1bfce )) (bvudiv (bvashr #x4f7e0857  bv_2) (bvashr bv_2 bv_2))))
(assert (bvule (bvxor (bvxor #x3296b1bf  #x358b9499 ) (bvudiv #xc9ac37bd  bv_0)) (bvashr (bvnor bv_4 bv_4) (bvsdiv bv_1 #x33210d24 ))))
(assert (=> (bvule (bvsrem bv_3 bv_2) (bvand #x9114e717  bv_3)) (bvult (bvmul bv_0 bv_2) (bvshl #xec195810  bv_2))))
(assert (or (bvult (bvurem #x780fd0a8  bv_3) (bvxnor bv_0 #x9d117e1f )) (or (not false) (or false true))))
(check-sat)
(exit)
